========================================================== 
File name: C:\DEGR\assets\definitions\MSRCPSP_Gen\100_20_64_10_A.def
Creation date: Wed May 03 10:38:57 CEST 2023
Website: http://imopse.ii.pwr.edu.pl/ 
Reference: 
Myszkowski P. B., Skowronski M. E., Olech L., Oslizlo K., 
Hybrid Ant Colony Optimization in solving Multi-Skill Resource-Constrained Project Scheduling Problem, 
Soft Computing, DOI: DOI 10.1007/s00500-014-1455-x 
========================================================== 
General characteristics: 
Tasks: 100
Resources: 20
Precedence relations: 63
Number of skill types: 10
========================================================== 
ResourceID 	 Salary 	 Skills 
1	 	 	11.7	 	 Q5: 3 	 
2	 	 	13.2	 	 Q5: 2 	  Q7: 0 	  Q3: 1 	  Q0: 2 	 
3	 	 	40.6	 	 Q8: 1 	  Q1: 0 	  Q5: 2 	  Q0: 2 	  Q2: 2 	 
4	 	 	25.1	 	 Q7: 3 	  Q8: 2 	  Q1: 3 	  Q9: 0 	 
5	 	 	18.6	 	 Q5: 0 	  Q1: 2 	  Q9: 2 	  Q8: 0 	  Q4: 2 	 
6	 	 	13.3	 	 Q2: 2 	  Q4: 1 	  Q6: 0 	  Q8: 2 	  Q1: 3 	 
7	 	 	19.0	 	 Q0: 0 	  Q9: 2 	  Q7: 0 	  Q2: 1 	  Q4: 0 	  Q5: 3 	  Q6: 1 	  Q3: 0 	  Q8: 0 	 
8	 	 	21.2	 	 Q8: 2 	 
9	 	 	59.6	 	 Q3: 0 	  Q0: 0 	  Q7: 0 	  Q6: 0 	  Q1: 2 	  Q9: 0 	  Q2: 0 	  Q8: 1 	  Q4: 0 	 
10	 	 	89.6	 	 Q1: 0 	 
11	 	 	42.6	 	 Q7: 1 	  Q9: 1 	  Q2: 1 	  Q6: 1 	  Q5: 2 	  Q4: 3 	 
12	 	 	87.4	 	 Q2: 1 	 
13	 	 	38.1	 	 Q4: 1 	  Q2: 3 	  Q3: 1 	  Q1: 3 	 
14	 	 	71.6	 	 Q0: 1 	  Q3: 3 	  Q9: 1 	  Q8: 1 	  Q1: 3 	  Q4: 2 	  Q2: 3 	  Q7: 3 	  Q6: 2 	 
15	 	 	58.8	 	 Q7: 0 	 
16	 	 	65.3	 	 Q9: 1 	  Q8: 2 	  Q3: 3 	  Q1: 1 	  Q2: 0 	  Q5: 3 	  Q6: 1 	  Q0: 0 	 
17	 	 	93.8	 	 Q9: 1 	  Q7: 2 	  Q4: 2 	  Q6: 3 	  Q0: 1 	  Q2: 0 	  Q1: 3 	  Q3: 3 	  Q5: 2 	 
18	 	 	46.2	 	 Q5: 2 	  Q3: 1 	  Q8: 2 	  Q2: 1 	  Q1: 1 	 
19	 	 	27.8	 	 Q2: 1 	  Q9: 0 	  Q5: 2 	  Q6: 1 	 
20	 	 	13.3	 	 Q2: 2 	  Q7: 0 	  Q5: 3 	  Q4: 0 	  Q3: 0 	  Q1: 3 	  Q0: 3 	  Q9: 1 	  Q8: 1 	 
========================================================== 
TaskID 	 Duration 	 Skill 	 Predecessor IDs 
1	12	Q4:	0
2	38	Q3:	0	1
3	17	Q3:	0
4	19	Q7:	2
5	32	Q7:	0
6	31	Q7:	3
7	15	Q7:	0
8	11	Q5:	2	5
9	15	Q7:	1
10	11	Q6:	0
11	38	Q8:	2
12	12	Q6:	0
13	25	Q2:	1
14	16	Q6:	0
15	19	Q0:	2
16	21	Q2:	2
17	30	Q5:	0
18	16	Q9:	1
19	9	Q5:	0
20	33	Q1:	2	11
21	10	Q7:	2	12
22	39	Q0:	2	2
23	16	Q6:	3
24	29	Q6:	3
25	29	Q2:	2	23
26	23	Q2:	1
27	40	Q4:	2
28	36	Q8:	0
29	32	Q0:	0
30	25	Q0:	3
31	28	Q4:	3	28
32	18	Q9:	0
33	13	Q0:	3
34	22	Q6:	2
35	13	Q4:	0
36	37	Q9:	2
37	36	Q4:	3	10
38	25	Q6:	3	37
39	24	Q0:	1
40	34	Q9:	2
41	17	Q8:	0	28	2
42	37	Q2:	0
43	16	Q1:	1	29	36
44	18	Q6:	0
45	26	Q8:	2	30
46	39	Q3:	3	31
47	38	Q7:	1	5
48	13	Q9:	2
49	24	Q0:	3	11
50	19	Q8:	1
51	34	Q2:	3	6
52	15	Q5:	2
53	40	Q8:	0	27	11
54	15	Q6:	1
55	24	Q7:	0
56	26	Q4:	1
57	17	Q4:	1
58	25	Q4:	3
59	23	Q7:	0
60	38	Q4:	3	13	30
61	12	Q4:	3
62	36	Q0:	2	5
63	16	Q5:	0	24
64	9	Q8:	2
65	30	Q3:	1	19
66	16	Q6:	3
67	26	Q8:	1	14
68	26	Q1:	1	16
69	27	Q5:	3
70	12	Q9:	1	8
71	31	Q0:	2
72	32	Q3:	0
73	13	Q2:	2	25
74	13	Q1:	3	24
75	9	Q4:	2	28
76	10	Q0:	3	12	24
77	15	Q8:	0
78	28	Q5:	2
79	28	Q3:	1
80	29	Q7:	2	61
81	25	Q5:	0	32	62
82	37	Q6:	3	9	37	16
83	12	Q0:	0	81	12
84	10	Q3:	3
85	28	Q7:	2	55	51
86	27	Q8:	2
87	23	Q9:	0	86
88	22	Q1:	2	45	5
89	37	Q1:	0	9	46
90	11	Q7:	3
91	24	Q2:	3
92	21	Q8:	2	39
93	26	Q2:	1
94	33	Q3:	3	12	47
95	19	Q3:	3	94
96	37	Q1:	0	80	1
97	32	Q4:	3	47
98	18	Q1:	0	64	52	45
99	13	Q6:	1	61	38
100	23	Q9:	1	68	95	89
========================================================== 